data/benchmarks/bayes/75-15-3-q.cnf
p cnf 1065 1045
c weights 0.825725 0.17427499999999996 1 1 1 1 1 1 1 1 1 1 1 1 1 1 1 1 1 1 1 1 1 1 1 1 1 1 1 1 1 1 1 1 1 1 1 1 1 1 1 1 1 1 1 1 1 1 1 1 1 1 1 1 1 1 1 1 1 1 1 1 1 1 1 1 1 1 1 1 1 1 1 1 1 1 1 1 1 1 1 1 1 1 1 1 1 1 1 1 1 1 1 1 1 1 1 1 1 1 1 1 1 1 1 1 1 1 1 1 1 1 1 1 1 1 1 1 1 1 1 1 1 1 1 1 1 1 1 1 1 1 1 1 1 1 1 1 1 1 1 1 1 1 1 1 1 1 1 1 1 1 1 1 1 1 1 1 1 1 1 1 1 1 1 1 1 1 1 1 1 1 1 1 1 1 1 1 1 1 1 1 1 1 1 1 1 1 1 1 1 1 1 1 1 1 1 1 1 1 1 1 1 1 1 1 1 1 1 1 1 1 1 1 1 1 1 1 1 1 1 1 1 1 1 1 1 1 1 1 1 1 1 1 1 1 1 1 1 1 1 1 1 1 1 1 1 1 1 1 1 1 1 1 1 1 1 1 1 1 1 1 1 1 1 1 1 1 1 1 1 1 1 1 1 1 1 1 1 1 1 1 1 1 1 1 1 1 1 1 1 1 1 1 1 1 1 1 1 1 1 1 1 1 1 1 1 1 1 1 1 1 1 1 1 1 1 1 1 1 1 1 1 1 1 1 1 1 1 1 1 1 1 1 1 1 1 1 1 1 1 1 1 1 1 1 1 1 1 1 1 1 1 1 1 1 1 1 1 1 1 1 1 1 1 1 1 1 1 1 1 1 1 1 1 1 1 1 1 1 1 1 1 1 1 1 1 1 1 1 1 1 1 1 1 1 1 1 1 1 1 1 1 1 1 1 1 1 1 1 1 1 1 1 1 1 1 1 1 1 1 1 1 1 1 1 1 1 1 1 1 1 1 1 1 1 1 1 1 1 1 1 1 1 1 1 1 1 1 1 0.5 0.5 0.5 0.5 0.5 0.5 0.5 0.5 0.5 0.5 0.5 0.5 0.5 0.5 0.5 0.5 0.920393 0.07960699999999998 0.843007 0.15699300000000005 0.5 0.5 0.5 0.5 0.163352 0.8366480000000001 0.578583 0.42141700000000004 0.5 0.5 0.5 0.5 0.5 0.5 0.5 0.5 0.5 0.5 0.5 0.5 0.5 0.5 0.5 0.5 0.5 0.5 0.5 0.5 0.5 0.5 0.5 0.5 0.5 0.5 0.5 0.5 0.5 0.5 0.5 0.5 0.5 0.5 0.5 0.5 0.5 0.5 0.5 0.5 0.5 0.5 0.5 0.5 0.5 0.5 0.5 0.5 0.5 0.5 0.5 0.5 0.5 0.5 0.5 0.5 0.5 0.5 0.5 0.5 0.5 0.5 0.5 0.5 0.953165 0.04683499999999996 0.00444128 0.99555872 0.309638 0.6903619999999999 0.977809 0.02219099999999996 0.5 0.5 0.5 0.5 0.5 0.5 0.5 0.5 0.754865 0.245135 0.68758 0.31242000000000003 0.994189 0.005811000000000011 0.753728 0.24627200000000005 0.5 0.5 0.5 0.5 0.5 0.5 0.5 0.5 0.995666 0.004333999999999949 0.889972 0.11002800000000001 0.280496 0.7195039999999999 0.659217 0.34078299999999995 0.5 0.5 0.5 0.5 0.5 0.5 0.5 0.5 0.5 0.5 0.5 0.5 0.5 0.5 0.5 0.5 0.822077 0.17792300000000005 0.701185 0.29881500000000005 0.10831 0.89169 0.0763139 0.9236861 0.5 0.5 0.5 0.5 0.5 0.5 0.5 0.5 0.5 0.5 0.5 0.5 0.5 0.5 0.5 0.5 0.312167 0.687833 0.521966 0.47803399999999996 0.5 0.5 0.5 0.5 0.5 0.5 0.5 0.5 0.5 0.5 0.5 0.5 0.5 0.5 0.5 0.5 0.5 0.5 0.5 0.5 0.5 0.5 0.5 0.5 0.613978 0.386022 0.578251 0.42174900000000004 0.771798 0.22820200000000002 0.445157 0.554843 0.665271 0.33472900000000005 0.0300635 0.9699365 0.614709 0.38529100000000005 0.162849 0.837151 0.5 0.5 0.5 0.5 0.5 0.5 0.5 0.5 0.5 0.5 0.5 0.5 0.5 0.5 0.5 0.5 0.629949 0.370051 0.982888 0.017112000000000016 0.914592 0.08540800000000004 0.933271 0.06672900000000004 0.630179 0.36982099999999996 0.282493 0.717507 0.593928 0.406072 0.167843 0.832157 0.5 0.5 0.5 0.5 0.5 0.5 0.5 0.5 0.5 0.5 0.5 0.5 0.5 0.5 0.5 0.5 0.5 0.5 0.5 0.5 0.5 0.5 0.5 0.5 0.5 0.5 0.5 0.5 0.5 0.5 0.5 0.5 0.5 0.5 0.5 0.5 0.5 0.5 0.5 0.5 0.283347 0.716653 0.031253 0.968747 0.5 0.5 0.5 0.5 0.5 0.5 0.5 0.5 0.330667 0.669333 0.581959 0.418041 0.207897 0.792103 0.0354941 0.9645059 0.5 0.5 0.5 0.5 0.5 0.5 0.5 0.5 0.5 0.5 0.5 0.5 0.5 0.5 0.5 0.5 0.5 0.5 0.5 0.5 0.5 0.5 0.5 0.5 0.5 0.5 0.5 0.5 0.5 0.5 0.5 0.5 0.5 0.5 0.5 0.5 0.5 0.5 0.5 0.5 0.343723 0.656277 0.398958 0.6010420000000001 0.1155 0.8845 0.379217 0.620783 0.580438 0.419562 0.734247 0.265753 0.436259 0.563741 0.333232 0.666768 0.5 0.5 0.5 0.5 0.5 0.5 0.5 0.5 0.5 0.5 0.5 0.5 0.5 0.5 0.5 0.5 0.886399 0.11360099999999995 0.240298 0.759702 0.482027 0.517973 0.482405 0.517595 0.0755674 0.9244326 0.955686 0.044313999999999965 0.894572 0.10542799999999997 0.0886236 0.9113764 0.802175 0.19782500000000003 0.432347 0.567653 0.171643 0.828357 0.917674 0.08232600000000001 0.0560716 0.9439284 0.498113 0.501887 0.5 0.5 0.5 0.5 0.5 0.5 0.5 0.5 0.5 0.5 0.5 0.5 0.5 0.5 0.5 0.5 0.5 0.5 0.5 0.5 0.5 0.5 0.5 0.5 0.5 0.5 0.5 0.5 0.5 0.5 0.5 0.5 0.221176 0.778824 0.675587 0.32441299999999995 0.543373 0.456627 0.0233505 0.9766495 0.5 0.5 0.5 0.5 0.5 0.5 0.5 0.5 0.5 0.5 0.5 0.5 0.5 0.5 0.5 0.5 0.5 0.5 0.5 0.5 0.5 0.5 0.5 0.5 0.5 0.5 0.5 0.5 0.5 0.5 0.5 0.5 0.5 0.5 0.5 0.5 0.5 0.5 0.5 0.5 0.5 0.5 0.5 0.5 0.5 0.5 0.5 0.5 0.5 0.5 0.5 0.5 0.5 0.5 0.5 0.5 0.5 0.5 0.5 0.5 0.5 0.5 0.5 0.5 0.5 0.5 0.5 0.5 0.5 0.5 0.5 0.5 0.5 0.5 0.5 0.5 0.5 0.5 0.5 0.5 0.5 0.5 0.5 0.5 0.400061 0.599939 0.170099 0.829901 0.413127 0.586873 0.0652371 0.9347629 0.5 0.5 0.5 0.5 0.5 0.5 0.5 0.5 0.282289 0.717711 0.892006 0.10799400000000003 0.666424 0.333576 0.0196295 0.9803705 0.616691 0.383309 0.108113 0.891887 0.413197 0.586803 0.995192 0.0048080000000000345 0.363329 0.636671 0.674387 0.32561300000000004 0.890233 0.10976699999999995 0.754743 0.24525699999999995 0.5 0.5 0.5 0.5 0.5 0.5 0.5 0.5 0.5 0.5 0.5 0.5 0.5 0.5 0.5 0.5 0.5 0.5 0.5 0.5 0.5 0.5 0.5 0.5 0.5 0.5 0.5 0.5 0.5 0.5 0.5 0.5 0.284567 0.715433 0.0239652 0.9760348 0.95207 0.04793000000000003 0.697763 0.302237 0.5 0.5 0.5 0.5 0.5 0.5 0.5 0.5 0.794016 0.20598399999999994 0.992545 0.007454999999999989 0.432645 0.567355 0.40006 0.5999399999999999 0.5 0.5 0.5 0.5 0.5 0.5 0.5 0.5 0.5 0.5 0.5 0.5 0.5 0.5 0.5 0.5 0.5 0.5 0.5 0.5 0.5 0.5 0.5 0.5 0.5 0.5 0.5 0.5 0.5 0.5 0.5 0.5 0.5 0.5 0.5 0.5 0.5 0.5 0.5 0.5 0.5 0.5 0.5 0.5 0.0915069 0.9084931 0.787441 0.21255900000000005 0.379997 0.6200030000000001 0.985078 0.01492199999999999 0.5 0.5 0.5 0.5 0.5 0.5 0.5 0.5 0.5 0.5 0.5 0.5 0.5 0.5 0.5 0.5 0.5 0.5 0.5 0.5 0.5 0.5 0.5 0.5 0.5 0.5 0.5 0.5 0.5 0.5 0.5 0.5 0.367603 0.632397 0.669044 0.33095600000000003 0.821353 0.178647 0.0264645 0.9735355 0.5 0.5 0.5 0.5 0.5 0.5 0.5 0.5 0.5 0.5 0.5 0.5 0.5 0.5 0.5 0.5 0.907856 0.092144 0.202336 0.797664 0.792769 0.20723100000000005 0.801402 0.19859800000000005 0.5 0.5 0.5 0.5 0.5 0.5 0.5 0.5 0.5 0.5 0.5 0.5 0.5 0.5 0.5 0.5 0.5 0.5 0.5 0.5 0.5 0.5 0.5 0.5 0.5 0.5 0.5 0.5 0.5 0.5 0.5 0.5 0.5 0.5 0.5 0.5 0.5 0.5 0.5 0.5 0.5 0.5 0.5 0.5 0.5 0.5 0.5 0.5 0.5 0.5 0.5 0.5 0.5 0.5 0.5 0.5 0.5 0.5 0.5 0.5 0.525814 0.474186 0.971951 0.02804899999999999 0.696834 0.30316600000000005 0.88031 0.11968999999999996 0.5 0.5 0.5 0.5 0.5 0.5 0.5 0.5 0.269801 0.730199 0.328405 0.6715949999999999 0.362183 0.6378170000000001 0.654608 0.34539200000000003 0.5 0.5 0.5 0.5 0.5 0.5 0.5 0.5 0.5 0.5 0.5 0.5 0.5 0.5 0.5 0.5 0.5 0.5 0.5 0.5 0.5 0.5 0.5 0.5 0.5 0.5 0.5 0.5 0.5 0.5 0.5 0.5 0.5 0.5 0.5 0.5 0.5 0.5 0.5 0.5 0.805964 0.194036 0.029448 0.970552 0.5 0.5 0.5 0.5 0.5 0.5 0.5 0.5 0.805781 0.19421900000000003 0.163881 0.8361190000000001 0.221839 0.778161 0.911828 0.08817200000000003 0.5 0.5 0.5 0.5 0.5 0.5 0.5 0.5 0.5 0.5 0.5 0.5 0.5 0.5 0.5 0.5 0.363177 0.6368229999999999 0.352324 0.6476759999999999 0.303219 0.696781 0.806959 0.19304100000000002 0.5 0.5 0.5 0.5 0.5 0.5 0.5 0.5 0.5 0.5 0.5 0.5 0.5 0.5 0.5 0.5 0.5 0.5 0.5 0.5 0.5 0.5 0.5 0.5 0.5 0.5 0.5 0.5 0.5 0.5 0.5 0.5 0.5 0.5 0.5 0.5 0.5 0.5 0.5 0.5 0.5 0.5 0.5 0.5 0.5 0.5 0.5 0.5 0.105455 0.894545 0.711416 0.28858399999999995 0.694471 0.30552900000000005 0.458685 0.541315 0.228531 0.771469 0.476819 0.523181 0.000407556 0.999592444 0.58377 0.41623 0.5 0.5 0.5 0.5 0.5 0.5 0.5 0.5 0.5 0.5 0.5 0.5 0.5 0.5 0.5 0.5 0.5 0.5 0.5 0.5 0.5 0.5 0.5 0.5 0.5 0.5 0.5 0.5 0.508258 0.491742 0.974379 0.025621000000000005 0.99564 0.0043600000000000305 0.446118 0.553882 0.5 0.5 0.5 0.5 0.5 0.5 0.5 0.5 0.5 0.5 0.5 0.5 0.5 0.5 0.5 0.5 0.113738 0.886262 0.352548 0.647452 0.344789 0.655211 0.550766 0.449234 0.5 0.5 0.5 0.5 0.5 0.5 0.5 0.5 0.5 0.5 0.5 0.5 0.5 0.5 0.5 0.5 0.5 0.5 0.5 0.5 0.5 0.5 0.5 0.5 0.5 0.5 0.5 0.5 0.5 0.5 0.5 0.5 0.5 0.5 0.5 0.5 0.5 0.5 0.5 0.5 0.5 0.5 0.5 0.5 0.5 0.5 0.5 0.5 0.5 0.5 0.5 0.5 0.5 0.5 0.5 0.5 0.5 0.5 0.5 0.5 0.5 0.5 0.5 0.5 0.5 0.5 0.5 0.5 0.5 0.5 0.5 0.5 0.5 0.5 0.5 0.5 0.5 0.5 0.5 0.5 0.5 0.5 0.5 0.5 0.5 0.5 0.5 0.5 0.5 0.5 0.5 0.5 0.5 0.5 0.5 0.5 0.5 0.5 0.5 0.5 0.747387 0.252613 0.136204 0.863796 0.543528 0.456472 0.663778 0.336222 0.846482 0.15351800000000004 0.842304 0.15769599999999995 0.0226229 0.9773771 0.718185 0.28181500000000004 0.5 0.5 0.5 0.5 0.5 0.5 0.5 0.5 0.5 0.5 0.5 0.5 0.5 0.5 0.5 0.5 0.5 0.5 0.5 0.5 0.5 0.5 0.5 0.5 0.5 0.5 0.5 0.5 0.5 0.5 0.5 0.5 0.5 0.5 0.5 0.5 0.5 0.5 0.5 0.5 0.5 0.5 0.5 0.5 0.5 0.5 0.5 0.5 0.5 0.5 0.5 0.5 0.5 0.5 0.5 0.5 0.5 0.5 0.5 0.5 0.5 0.5 0.5 0.5 0.720941 0.27905899999999995 0.91966 0.08033999999999997 0.933171 0.06682900000000003 0.534807 0.46519299999999997 0.946948 0.05305199999999999 0.35231 0.64769 0.493244 0.506756 0.258965 0.741035 0.388052 0.6119479999999999 0.884634 0.11536599999999997 0.0479394 0.9520606 0.819551 0.18044899999999997 0.230825 0.7691749999999999 0.687676 0.31232400000000005 0.5 0.5 0.5 0.5 0.5 0.5 0.5 0.5 0.5 0.5 0.5 0.5 0.5 0.5 0.5 0.5 0.710034 0.28996599999999995 0.727003 0.27299700000000005 0.603483 0.396517 0.629694 0.370306 0.5 0.5 0.5 0.5 0.5 0.5 0.5 0.5 0.5 0.5 0.5 0.5 0.5 0.5 0.5 0.5 0.5 0.5 0.5 0.5 0.5 0.5 0.5 0.5 0.5 0.5 0.5 0.5 0.5 0.5 0.5 0.5 0.5 0.5 0.5 0.5 0.5 0.5 0.5 0.5 0.5 0.5 0.5 0.5 0.5 0.5 0.5 0.5 0.5 0.5 0.5 0.5 0.5 0.5 0.5 0.5 0.244085 0.755915 0.687108 0.31289199999999995 0.868152 0.13184799999999997 0.30502 0.6949799999999999 0.5 0.5 0.5 0.5 0.5 0.5 0.5 0.5 0.5 0.5 0.5 0.5 0.5 0.5 0.5 0.5 0.5 0.5 0.5 0.5 0.5 0.5 0.5 0.5 0.5 0.5 0.5 0.5 0.5 0.5 0.5 0.5 0.5 0.5 0.5 0.5 0.5 0.5 0.5 0.5 0.5 0.5 0.5 0.5 0.5 0.5 0.5 0.5 0.5 0.5 0.5 0.5 0.5 0.5 0.5 0.5 0.5 0.5 0.5 0.5 0.5 0.5 0.5 0.5 0.5 0.5 0.5 0.5 0.5 0.5 0.5 0.5 0.5 0.5 0.5 0.5 0.5 0.5 0.5 0.5 0.5 0.5 0.5 0.5 0.5 0.5 0.5 0.5 0.5 0.5 0.5 0.5 0.107782 0.892218 0.38895 0.61105 0.906209 0.09379099999999996 0.573954 0.42604600000000004 0.947332 0.05266800000000005 0.319614 0.6803859999999999 0.366016 0.633984 0.456801 0.543199 0.852926 0.14707400000000004 0.635156 0.36484399999999995 0.0492132 0.9507868 0.619184 0.38081600000000004 0.5 0.5 0.5 0.5 0.5 0.5 0.5 0.5 0.5 0.5 0.5 0.5 0.215177 0.784823 0.562773 0.43722700000000003 0.91171 0.08828999999999998 0.889196 0.11080400000000001 0.5 0.5 0.5 0.5 0.5 0.5 0.5 0.5 0.5 0.5 0.5 0.5 0.5 0.5 0.5 0.5 0.5 0.5 0.5 0.5 0.5 0.5 0.5 0.5 0.5 0.5 0.5 0.5 0.5 0.5 0.5 0.5 0.5 0.5 0.5 0.5 0.5 0.5 0.5 0.5 0.5 0.5 0.5 0.5 0.5 0.5 0.5 0.5 0.5 0.5 0.5 0.5 0.5 0.5 0.5 0.5 0.5 0.5 0.5 0.5 0.5 0.5 0.5 0.5 0.500875 0.49912500000000004 0.851082 0.148918 0.27477 0.72523 0.0488662 0.9511338 0.5 0.5 0.5 0.5 0.5 0.5 0.5 0.5 0.5 0.5 0.5 0.5 0.5 0.5 0.5 0.5 0.5 0.5 0.5 0.5 0.5 0.5 0.5 0.5 0.600096 0.39990400000000004 0.613733 0.386267 0.277552 0.722448 0.454183 0.545817 0.197067 0.802933 0.190377 0.809623 0.5 0.5 0.5 0.5 0.5 0.5 0.5 0.5 0.504214 0.49578599999999995 0.156492 0.843508 0.502275 0.497725 0.0120077 0.9879923 0.5 0.5 0.5 0.5 0.5 0.5 0.5 0.5 0.5 0.5 0.5 0.5 0.5 0.5 0.5 0.5 0.5 0.5 0.5 0.5 0.5 0.5 0.5 0.5 0.5 0.5 0.5 0.5 0.5 0.5 0.5 0.5 0.322433 0.677567 0.310646 0.689354 0.736388 0.26361199999999996 0.551878 0.448122 0.5 0.5 0.5 0.5 0.5 0.5 0.5 0.5 0.5 0.5 0.5 0.5 0.5 0.5 0.5 0.5 0.5 0.5 0.5 0.5 0.5 0.5 0.5 0.5 0.5 0.5 0.5 0.5 0.5 0.5 0.5 0.5 0.5 0.5 0.5 0.5 0.5 0.5 0.5 0.5 0.5 0.5 0.5 0.5 0.5 0.5 0.5 0.5
-1 2 0
1 -2 0
-2 3 0
2 -3 0
-3 -4 0
3 4 0
-4 5 0
4 -5 0
-5 -234 6 0
-5 234 -6 0
5 -235 6 0
5 235 -6 0
-6 -7 0
6 7 0
-7 -238 8 0
-7 238 -8 0
7 -239 8 0
7 239 -8 0
-8 9 0
8 -9 0
-9 10 0
9 -10 0
-10 11 0
10 -11 0
-11 -12 0
11 12 0
-12 13 0
12 -13 0
-13 14 0
13 -14 0
-14 -15 0
14 15 0
-1 -16 0
1 16 0
-16 -2 -17 0
-16 2 17 0
16 -2 -17 0
16 2 -17 0
-17 -3 -18 0
-17 3 -18 0
17 -3 18 0
17 3 18 0
-18 -4 19 0
-18 4 -19 0
18 -4 19 0
18 4 19 0
-19 -5 20 0
-19 5 20 0
19 -5 20 0
19 5 -20 0
-20 -6 -272 21 0
-20 -6 272 -21 0
-20 6 -273 21 0
-20 6 273 -21 0
20 -6 -274 21 0
20 -6 274 -21 0
20 6 -275 21 0
20 6 275 -21 0
-21 -7 22 0
-21 7 22 0
21 -7 -22 0
21 7 -22 0
-22 -8 -280 23 0
-22 -8 280 -23 0
-22 8 -281 23 0
-22 8 281 -23 0
22 -8 -282 23 0
22 -8 282 -23 0
22 8 -283 23 0
22 8 283 -23 0
-23 -9 -24 0
-23 9 -24 0
23 -9 -24 0
23 9 24 0
-24 -10 -288 25 0
-24 -10 288 -25 0
-24 10 -289 25 0
-24 10 289 -25 0
24 -10 -290 25 0
24 -10 290 -25 0
24 10 -291 25 0
24 10 291 -25 0
-25 -11 -26 0
-25 11 26 0
25 -11 -26 0
25 11 26 0
-26 -12 27 0
-26 12 27 0
26 -12 -27 0
26 12 27 0
-27 -13 -300 28 0
-27 -13 300 -28 0
-27 13 -301 28 0
-27 13 301 -28 0
27 -13 -302 28 0
27 -13 302 -28 0
27 13 -303 28 0
27 13 303 -28 0
-28 -14 29 0
-28 14 29 0
28 -14 -29 0
28 14 -29 0
-29 -15 -30 0
-29 15 -30 0
29 -15 -30 0
29 15 30 0
-16 -312 31 0
-16 312 -31 0
16 -313 31 0
16 313 -31 0
-31 -17 32 0
-31 17 32 0
31 -17 -32 0
31 17 -32 0
-32 -18 33 0
-32 18 33 0
32 -18 -33 0
32 18 -33 0
-33 -19 34 0
-33 19 -34 0
33 -19 34 0
33 19 34 0
-34 -20 -326 35 0
-34 -20 326 -35 0
-34 20 -327 35 0
-34 20 327 -35 0
34 -20 -328 35 0
34 -20 328 -35 0
34 20 -329 35 0
34 20 329 -35 0
-35 -21 -330 36 0
-35 -21 330 -36 0
-35 21 -331 36 0
-35 21 331 -36 0
35 -21 -332 36 0
35 -21 332 -36 0
35 21 -333 36 0
35 21 333 -36 0
-36 -22 37 0
-36 22 -37 0
36 -22 37 0
36 22 -37 0
-37 -23 38 0
-37 23 38 0
37 -23 -38 0
37 23 -38 0
-38 -24 -342 39 0
-38 -24 342 -39 0
-38 24 -343 39 0
-38 24 343 -39 0
38 -24 -344 39 0
38 -24 344 -39 0
38 24 -345 39 0
38 24 345 -39 0
-39 -25 -346 40 0
-39 -25 346 -40 0
-39 25 -347 40 0
-39 25 347 -40 0
39 -25 -348 40 0
39 -25 348 -40 0
39 25 -349 40 0
39 25 349 -40 0
-40 -26 -41 0
-40 26 -41 0
40 -26 41 0
40 26 41 0
-41 -27 -42 0
-41 27 -42 0
41 -27 -42 0
41 27 42 0
-42 -28 43 0
-42 28 -43 0
42 -28 -43 0
42 28 -43 0
-43 -29 44 0
-43 29 44 0
43 -29 -44 0
43 29 44 0
-44 -30 -45 0
-44 30 -45 0
44 -30 45 0
44 30 45 0
-31 -370 46 0
-31 370 -46 0
31 -371 46 0
31 371 -46 0
-46 -32 47 0
-46 32 -47 0
46 -32 -47 0
46 32 -47 0
-47 -33 -376 48 0
-47 -33 376 -48 0
-47 33 -377 48 0
-47 33 377 -48 0
47 -33 -378 48 0
47 -33 378 -48 0
47 33 -379 48 0
47 33 379 -48 0
-48 -34 49 0
-48 34 49 0
48 -34 49 0
48 34 -49 0
-49 -35 50 0
-49 35 -50 0
49 -35 -50 0
49 35 -50 0
-50 -36 51 0
-50 36 51 0
50 -36 51 0
50 36 -51 0
-51 -37 -52 0
-51 37 -52 0
51 -37 52 0
51 37 -52 0
-52 -38 53 0
-52 38 -53 0
52 -38 -53 0
52 38 53 0
-53 -39 -400 54 0
-53 -39 400 -54 0
-53 39 -401 54 0
-53 39 401 -54 0
53 -39 -402 54 0
53 -39 402 -54 0
53 39 -403 54 0
53 39 403 -54 0
-54 -40 -404 55 0
-54 -40 404 -55 0
-54 40 -405 55 0
-54 40 405 -55 0
54 -40 -406 55 0
54 -40 406 -55 0
54 40 -407 55 0
54 40 407 -55 0
-55 -41 56 0
-55 41 -56 0
55 -41 56 0
55 41 -56 0
-56 -42 -57 0
-56 42 57 0
56 -42 57 0
56 42 57 0
-57 -43 -416 58 0
-57 -43 416 -58 0
-57 43 -417 58 0
-57 43 417 -58 0
57 -43 -418 58 0
57 -43 418 -58 0
57 43 -419 58 0
57 43 419 -58 0
-58 -44 -420 59 0
-58 -44 420 -59 0
-58 44 -421 59 0
-58 44 421 -59 0
58 -44 -422 59 0
58 -44 422 -59 0
58 44 -423 59 0
58 44 423 -59 0
-59 -45 -424 60 0
-59 -45 424 -60 0
-59 45 -425 60 0
-59 45 425 -60 0
59 -45 -426 60 0
59 -45 426 -60 0
59 45 -427 60 0
59 45 427 -60 0
-46 -428 61 0
-46 428 -61 0
46 -429 61 0
46 429 -61 0
-61 -47 -62 0
-61 47 62 0
61 -47 -62 0
61 47 -62 0
-62 -48 63 0
-62 48 -63 0
62 -48 63 0
62 48 63 0
-63 -49 64 0
-63 49 -64 0
63 -49 -64 0
63 49 64 0
-64 -50 -65 0
-64 50 -65 0
64 -50 -65 0
64 50 65 0
-65 -51 -446 66 0
-65 -51 446 -66 0
-65 51 -447 66 0
-65 51 447 -66 0
65 -51 -448 66 0
65 -51 448 -66 0
65 51 -449 66 0
65 51 449 -66 0
-66 -52 -67 0
-66 52 -67 0
66 -52 -67 0
66 52 67 0
-67 -53 -68 0
-67 53 68 0
67 -53 68 0
67 53 -68 0
-68 -54 69 0
-68 54 -69 0
68 -54 69 0
68 54 -69 0
-69 -55 70 0
-69 55 70 0
69 -55 -70 0
69 55 70 0
-70 -56 71 0
-70 56 71 0
70 -56 71 0
70 56 -71 0
-71 -57 -72 0
-71 57 72 0
71 -57 -72 0
71 57 -72 0
-72 -58 73 0
-72 58 73 0
72 -58 -73 0
72 58 73 0
-73 -59 -74 0
-73 59 74 0
73 -59 74 0
73 59 -74 0
-74 -60 75 0
-74 60 75 0
74 -60 -75 0
74 60 -75 0
-61 76 0
61 -76 0
-76 -62 77 0
-76 62 -77 0
76 -62 77 0
76 62 77 0
-77 -63 -492 78 0
-77 -63 492 -78 0
-77 63 -493 78 0
-77 63 493 -78 0
77 -63 -494 78 0
77 -63 494 -78 0
77 63 -495 78 0
77 63 495 -78 0
-78 -64 -79 0
-78 64 79 0
78 -64 79 0
78 64 79 0
-79 -65 -500 80 0
-79 -65 500 -80 0
-79 65 -501 80 0
-79 65 501 -80 0
79 -65 -502 80 0
79 -65 502 -80 0
79 65 -503 80 0
79 65 503 -80 0
-80 -66 -504 81 0
-80 -66 504 -81 0
-80 66 -505 81 0
-80 66 505 -81 0
80 -66 -506 81 0
80 -66 506 -81 0
80 66 -507 81 0
80 66 507 -81 0
-81 -67 -508 82 0
-81 -67 508 -82 0
-81 67 -509 82 0
-81 67 509 -82 0
81 -67 -510 82 0
81 -67 510 -82 0
81 67 -511 82 0
81 67 511 -82 0
-82 -68 83 0
-82 68 83 0
82 -68 83 0
82 68 -83 0
-83 -69 84 0
-83 69 84 0
83 -69 84 0
83 69 -84 0
-84 -70 -85 0
-84 70 85 0
84 -70 -85 0
84 70 85 0
-85 -71 -86 0
-85 71 -86 0
85 -71 86 0
85 71 -86 0
-86 -72 -528 87 0
-86 -72 528 -87 0
-86 72 -529 87 0
-86 72 529 -87 0
86 -72 -530 87 0
86 -72 530 -87 0
86 72 -531 87 0
86 72 531 -87 0
-87 -73 -88 0
-87 73 -88 0
87 -73 88 0
87 73 88 0
-88 -74 -536 89 0
-88 -74 536 -89 0
-88 74 -537 89 0
-88 74 537 -89 0
88 -74 -538 89 0
88 -74 538 -89 0
88 74 -539 89 0
88 74 539 -89 0
-89 -75 -90 0
-89 75 90 0
89 -75 90 0
89 75 90 0
-76 91 0
76 -91 0
-91 -77 -92 0
-91 77 92 0
91 -77 92 0
91 77 92 0
-92 -78 93 0
-92 78 -93 0
92 -78 93 0
92 78 93 0
-93 -79 94 0
-93 79 94 0
93 -79 -94 0
93 79 -94 0
-94 -80 -95 0
-94 80 -95 0
94 -80 -95 0
94 80 95 0
-95 -81 -562 96 0
-95 -81 562 -96 0
-95 81 -563 96 0
-95 81 563 -96 0
95 -81 -564 96 0
95 -81 564 -96 0
95 81 -565 96 0
95 81 565 -96 0
-96 -82 97 0
-96 82 97 0
96 -82 -97 0
96 82 -97 0
-97 -83 -98 0
-97 83 98 0
97 -83 -98 0
97 83 -98 0
-98 -84 99 0
-98 84 -99 0
98 -84 -99 0
98 84 -99 0
-99 -85 -100 0
-99 85 100 0
99 -85 100 0
99 85 -100 0
-100 -86 -582 101 0
-100 -86 582 -101 0
-100 86 -583 101 0
-100 86 583 -101 0
100 -86 -584 101 0
100 -86 584 -101 0
100 86 -585 101 0
100 86 585 -101 0
-101 -87 102 0
-101 87 -102 0
101 -87 -102 0
101 87 102 0
-102 -88 103 0
-102 88 -103 0
102 -88 -103 0
102 88 103 0
-103 -89 -594 104 0
-103 -89 594 -104 0
-103 89 -595 104 0
-103 89 595 -104 0
103 -89 -596 104 0
103 -89 596 -104 0
103 89 -597 104 0
103 89 597 -104 0
-104 -90 -105 0
-104 90 -105 0
104 -90 -105 0
104 90 105 0
-91 106 0
91 -106 0
-106 -92 -107 0
-106 92 107 0
106 -92 107 0
106 92 107 0
-107 -93 -108 0
-107 93 -108 0
107 -93 108 0
107 93 108 0
-108 -94 -109 0
-108 94 -109 0
108 -94 -109 0
108 94 109 0
-109 -95 -110 0
-109 95 -110 0
109 -95 -110 0
109 95 110 0
-110 -96 111 0
-110 96 111 0
110 -96 -111 0
110 96 -111 0
-111 -97 112 0
-111 97 -112 0
111 -97 -112 0
111 97 -112 0
-112 -98 -628 113 0
-112 -98 628 -113 0
-112 98 -629 113 0
-112 98 629 -113 0
112 -98 -630 113 0
112 -98 630 -113 0
112 98 -631 113 0
112 98 631 -113 0
-113 -99 114 0
-113 99 -114 0
113 -99 114 0
113 99 114 0
-114 -100 -636 115 0
-114 -100 636 -115 0
-114 100 -637 115 0
-114 100 637 -115 0
114 -100 -638 115 0
114 -100 638 -115 0
114 100 -639 115 0
114 100 639 -115 0
-115 -101 -116 0
-115 101 -116 0
115 -101 116 0
115 101 -116 0
-116 -102 -117 0
-116 102 117 0
116 -102 117 0
116 102 117 0
-117 -103 -118 0
-117 103 -118 0
117 -103 118 0
117 103 -118 0
-118 -104 119 0
-118 104 119 0
118 -104 -119 0
118 104 119 0
-119 -105 -120 0
-119 105 -120 0
119 -105 120 0
119 105 -120 0
-106 -660 121 0
-106 660 -121 0
106 -661 121 0
106 661 -121 0
-121 -107 122 0
-121 107 122 0
121 -107 -122 0
121 107 122 0
-122 -108 -666 123 0
-122 -108 666 -123 0
-122 108 -667 123 0
-122 108 667 -123 0
122 -108 -668 123 0
122 -108 668 -123 0
122 108 -669 123 0
122 108 669 -123 0
-123 -109 -124 0
-123 109 124 0
123 -109 -124 0
123 109 -124 0
-124 -110 -125 0
-124 110 125 0
124 -110 -125 0
124 110 -125 0
-125 -111 -678 126 0
-125 -111 678 -126 0
-125 111 -679 126 0
-125 111 679 -126 0
125 -111 -680 126 0
125 -111 680 -126 0
125 111 -681 126 0
125 111 681 -126 0
-126 -112 -127 0
-126 112 -127 0
126 -112 127 0
126 112 -127 0
-127 -113 -128 0
-127 113 128 0
127 -113 -128 0
127 113 -128 0
-128 -114 -129 0
-128 114 -129 0
128 -114 129 0
128 114 -129 0
-129 -115 130 0
-129 115 -130 0
129 -115 130 0
129 115 -130 0
-130 -116 131 0
-130 116 -131 0
130 -116 131 0
130 116 -131 0
-131 -117 -132 0
-131 117 132 0
131 -117 -132 0
131 117 132 0
-132 -118 -706 133 0
-132 -118 706 -133 0
-132 118 -707 133 0
-132 118 707 -133 0
132 -118 -708 133 0
132 -118 708 -133 0
132 118 -709 133 0
132 118 709 -133 0
-133 -119 -710 134 0
-133 -119 710 -134 0
-133 119 -711 134 0
-133 119 711 -134 0
133 -119 -712 134 0
133 -119 712 -134 0
133 119 -713 134 0
133 119 713 -134 0
-134 -120 -135 0
-134 120 -135 0
134 -120 135 0
134 120 135 0
-121 136 0
121 -136 0
-136 -122 -137 0
-136 122 -137 0
136 -122 -137 0
136 122 137 0
-137 -123 -138 0
-137 123 138 0
137 -123 138 0
137 123 138 0
-138 -124 -728 139 0
-138 -124 728 -139 0
-138 124 -729 139 0
-138 124 729 -139 0
138 -124 -730 139 0
138 -124 730 -139 0
138 124 -731 139 0
138 124 731 -139 0
-139 -125 140 0
-139 125 -140 0
139 -125 -140 0
139 125 140 0
-140 -126 141 0
-140 126 -141 0
140 -126 -141 0
140 126 -141 0
-141 -127 -740 142 0
-141 -127 740 -142 0
-141 127 -741 142 0
-141 127 741 -142 0
141 -127 -742 142 0
141 -127 742 -142 0
141 127 -743 142 0
141 127 743 -142 0
-142 -128 -143 0
-142 128 143 0
142 -128 -143 0
142 128 -143 0
-143 -129 144 0
-143 129 144 0
143 -129 144 0
143 129 -144 0
-144 -130 145 0
-144 130 -145 0
144 -130 -145 0
144 130 -145 0
-145 -131 -146 0
-145 131 146 0
145 -131 -146 0
145 131 -146 0
-146 -132 147 0
-146 132 147 0
146 -132 -147 0
146 132 147 0
-147 -133 148 0
-147 133 -148 0
147 -133 -148 0
147 133 -148 0
-148 -134 -149 0
-148 134 -149 0
148 -134 149 0
148 134 -149 0
-149 -135 -150 0
-149 135 150 0
149 -135 -150 0
149 135 150 0
-136 -151 0
136 151 0
-151 -137 -152 0
-151 137 -152 0
151 -137 152 0
151 137 -152 0
-152 -138 -153 0
-152 138 153 0
152 -138 153 0
152 138 153 0
-153 -139 -154 0
-153 139 154 0
153 -139 -154 0
153 139 154 0
-154 -140 -155 0
-154 140 155 0
154 -140 155 0
154 140 155 0
-155 -141 -794 156 0
-155 -141 794 -156 0
-155 141 -795 156 0
-155 141 795 -156 0
155 -141 -796 156 0
155 -141 796 -156 0
155 141 -797 156 0
155 141 797 -156 0
-156 -142 -798 157 0
-156 -142 798 -157 0
-156 142 -799 157 0
-156 142 799 -157 0
156 -142 -800 157 0
156 -142 800 -157 0
156 142 -801 157 0
156 142 801 -157 0
-157 -143 -158 0
-157 143 -158 0
157 -143 158 0
157 143 -158 0
-158 -144 159 0
-158 144 159 0
158 -144 159 0
158 144 -159 0
-159 -145 -160 0
-159 145 -160 0
159 -145 160 0
159 145 -160 0
-160 -146 -161 0
-160 146 -161 0
160 -146 161 0
160 146 -161 0
-161 -147 162 0
-161 147 162 0
161 -147 162 0
161 147 -162 0
-162 -148 -163 0
-162 148 163 0
162 -148 -163 0
162 148 -163 0
-163 -149 164 0
-163 149 164 0
163 -149 -164 0
163 149 164 0
-164 -150 165 0
-164 150 -165 0
164 -150 -165 0
164 150 -165 0
-151 -834 166 0
-151 834 -166 0
151 -835 166 0
151 835 -166 0
-166 -152 -836 167 0
-166 -152 836 -167 0
-166 152 -837 167 0
-166 152 837 -167 0
166 -152 -838 167 0
166 -152 838 -167 0
166 152 -839 167 0
166 152 839 -167 0
-167 -153 -840 168 0
-167 -153 840 -168 0
-167 153 -841 168 0
-167 153 841 -168 0
167 -153 -842 168 0
167 -153 842 -168 0
167 153 -843 168 0
167 153 843 -168 0
-168 -154 -844 169 0
-168 -154 844 -169 0
-168 154 -845 169 0
-168 154 845 -169 0
168 -154 -846 169 0
168 -154 846 -169 0
168 154 -847 169 0
168 154 847 -169 0
-169 -155 -170 0
-169 155 170 0
169 -155 -170 0
169 155 -170 0
-170 -156 171 0
-170 156 -171 0
170 -156 171 0
170 156 171 0
-171 -157 -856 172 0
-171 -157 856 -172 0
-171 157 -857 172 0
-171 157 857 -172 0
171 -157 -858 172 0
171 -157 858 -172 0
171 157 -859 172 0
171 157 859 -172 0
-172 -158 -173 0
-172 158 173 0
172 -158 173 0
172 158 173 0
-173 -159 -174 0
-173 159 -174 0
173 -159 -174 0
173 159 174 0
-174 -160 -175 0
-174 160 175 0
174 -160 -175 0
174 160 175 0
-175 -161 -176 0
-175 161 176 0
175 -161 176 0
175 161 176 0
-176 -162 -177 0
-176 162 177 0
176 -162 177 0
176 162 177 0
-177 -163 178 0
-177 163 -178 0
177 -163 -178 0
177 163 178 0
-178 -164 -179 0
-178 164 -179 0
178 -164 179 0
178 164 -179 0
-179 -165 -888 180 0
-179 -165 888 -180 0
-179 165 -889 180 0
-179 165 889 -180 0
179 -165 -890 180 0
179 -165 890 -180 0
179 165 -891 180 0
179 165 891 -180 0
-166 181 0
166 -181 0
-181 -167 -182 0
-181 167 -182 0
181 -167 -182 0
181 167 182 0
-182 -168 -183 0
-182 168 -183 0
182 -168 183 0
182 168 183 0
-183 -169 -184 0
-183 169 184 0
183 -169 -184 0
183 169 184 0
-184 -170 185 0
-184 170 -185 0
184 -170 -185 0
184 170 -185 0
-185 -171 186 0
-185 171 -186 0
185 -171 -186 0
185 171 -186 0
-186 -172 187 0
-186 172 187 0
186 -172 187 0
186 172 -187 0
-187 -173 188 0
-187 173 188 0
187 -173 -188 0
187 173 188 0
-188 -174 -189 0
-188 174 -189 0
188 -174 189 0
188 174 -189 0
-189 -175 190 0
-189 175 -190 0
189 -175 -190 0
189 175 -190 0
-190 -176 -191 0
-190 176 -191 0
190 -176 191 0
190 176 -191 0
-191 -177 -192 0
-191 177 -192 0
191 -177 192 0
191 177 -192 0
-192 -178 -938 193 0
-192 -178 938 -193 0
-192 178 -939 193 0
-192 178 939 -193 0
192 -178 -940 193 0
192 -178 940 -193 0
192 178 -941 193 0
192 178 941 -193 0
-193 -179 -942 194 0
-193 -179 942 -194 0
-193 179 -943 194 0
-193 179 943 -194 0
193 -179 -944 194 0
193 -179 944 -194 0
193 179 -945 194 0
193 179 945 -194 0
-194 -180 -946 195 0
-194 -180 946 -195 0
-194 180 -947 195 0
-194 180 947 -195 0
194 -180 -948 195 0
194 -180 948 -195 0
194 180 -949 195 0
194 180 949 -195 0
-181 196 0
181 -196 0
-196 -182 197 0
-196 182 197 0
196 -182 197 0
196 182 -197 0
-197 -183 -956 198 0
-197 -183 956 -198 0
-197 183 -957 198 0
-197 183 957 -198 0
197 -183 -958 198 0
197 -183 958 -198 0
197 183 -959 198 0
197 183 959 -198 0
-198 -184 -199 0
-198 184 199 0
198 -184 199 0
198 184 -199 0
-199 -185 -200 0
-199 185 -200 0
199 -185 200 0
199 185 -200 0
-200 -186 -201 0
-200 186 -201 0
200 -186 201 0
200 186 -201 0
-201 -187 -202 0
-201 187 -202 0
201 -187 -202 0
201 187 202 0
-202 -188 -203 0
-202 188 -203 0
202 -188 203 0
202 188 203 0
-203 -189 204 0
-203 189 204 0
203 -189 204 0
203 189 -204 0
-204 -190 -205 0
-204 190 -205 0
204 -190 -205 0
204 190 205 0
-205 -191 206 0
-205 191 206 0
205 -191 206 0
205 191 -206 0
-206 -192 -992 207 0
-206 -192 992 -207 0
-206 192 -993 207 0
-206 192 993 -207 0
206 -192 -994 207 0
206 -192 994 -207 0
206 192 -995 207 0
206 192 995 -207 0
-207 -193 208 0
-207 193 -208 0
207 -193 208 0
207 193 208 0
-208 -194 209 0
-208 194 209 0
208 -194 -209 0
208 194 -209 0
-209 -195 -210 0
-209 195 210 0
209 -195 -210 0
209 195 -210 0
-196 -1008 211 0
-196 1008 -211 0
196 -1009 211 0
196 1009 -211 0
-211 -197 -1010 212 0
-211 -197 1010 -212 0
-211 197 -1011 212 0
-211 197 1011 -212 0
211 -197 -1012 212 0
211 -197 1012 -212 0
211 197 -1013 212 0
211 197 1013 -212 0
-212 -198 -213 0
-212 198 213 0
212 -198 213 0
212 198 -213 0
-213 -199 -1018 214 0
-213 -199 1018 -214 0
-213 199 -1019 214 0
-213 199 1019 -214 0
213 -199 -1020 214 0
213 -199 1020 -214 0
213 199 -1021 214 0
213 199 1021 -214 0
-214 -200 215 0
-214 200 -215 0
214 -200 -215 0
214 200 -215 0
-215 -201 -216 0
-215 201 -216 0
215 -201 -216 0
215 201 216 0
-216 -202 -217 0
-216 202 217 0
216 -202 -217 0
216 202 217 0
-217 -203 -218 0
-217 203 -218 0
217 -203 218 0
217 203 -218 0
-218 -204 -1038 219 0
-218 -204 1038 -219 0
-218 204 -1039 219 0
-218 204 1039 -219 0
218 -204 -1040 219 0
218 -204 1040 -219 0
218 204 -1041 219 0
218 204 1041 -219 0
-219 -205 220 0
-219 205 -220 0
219 -205 220 0
219 205 220 0
-220 -206 -221 0
-220 206 -221 0
220 -206 221 0
220 206 -221 0
-221 -207 -222 0
-221 207 222 0
221 -207 222 0
221 207 222 0
-222 -208 -223 0
-222 208 223 0
222 -208 223 0
222 208 223 0
-223 -209 224 0
-223 209 -224 0
223 -209 -224 0
223 209 224 0
-224 -210 225 0
-224 210 -225 0
224 -210 225 0
224 210 225 0
225 0
