data/benchmarks/bayes/75-15-3-q.gr
p tw 1065 1212
166 181
198 213
15 30
67 68
47 62
99 100
192 993
59 73
24 344
114 637
8 238
107 122
139 154
8 9
159 160
44 420
40 41
80 504
193 939
199 214
86 584
122 668
48 63
100 101
80 95
106 660
132 133
169 847
92 106
140 155
192 193
172 187
41 42
206 994
73 74
141 794
184 198
33 47
81 96
133 134
178 941
155 796
14 15
25 290
125 139
173 188
207 995
22 37
39 346
74 75
106 107
87 530
66 80
114 129
166 167
65 502
47 48
158 172
206 221
7 21
35 330
55 70
107 108
213 1020
142 740
77 494
99 113
147 162
199 200
48 49
157 859
193 943
80 81
191 205
53 402
36 331
40 54
140 141
132 146
66 448
153 843
81 82
172 856
73 87
173 174
59 427
22 23
138 729
165 179
154 844
14 28
104 596
114 115
206 207
55 56
134 713
198 212
47 61
147 148
24 343
60 427
114 636
168 845
139 153
179 891
207 208
193 938
80 503
21 36
199 213
80 94
113 128
169 846
100 585
172 186
206 993
205 220
54 69
59 422
181 182
10 291
155 795
146 161
25 289
173 187
39 345
72 531
87 102
22 283
13 302
65 501
119 710
214 215
179 194
28 43
206 220
35 329
89 538
213 1019
88 103
168 840
120 135
21 22
147 161
141 743
180 195
157 858
44 423
29 44
193 942
61 76
113 114
121 136
46 371
153 168
205 206
51 449
2 17
54 55
66 447
153 842
62 77
94 109
146 147
59 426
154 169
3 18
20 327
74 536
35 50
87 88
138 728
39 349
95 110
127 142
179 180
28 29
86 528
187 202
134 712
219 1039
36 51
88 89
68 83
35 333
128 143
168 844
160 175
29 30
28 303
195 947
61 62
142 801
6 275
21 35
38 344
21 273
69 84
121 122
101 116
108 668
153 154
2 3
113 127
204 1041
161 176
100 584
213 214
10 25
55 405
62 63
94 95
206 992
205 219
54 68
180 949
102 117
154 155
13 27
59 421
3 4
31 313
113 630
35 36
118 708
155 794
146 160
194 209
105 119
197 1010
43 58
95 96
192 941
127 128
40 407
87 101
13 301
67 510
103 594
135 150
36 37
187 188
7 239
33 377
68 69
179 193
96 564
28 42
183 959
76 91
35 328
79 502
89 537
128 129
160 161
63 494
120 134
168 183
212 1013
79 93
220 221
69 70
141 742
101 102
179 943
43 417
198 956
161 162
20 34
10 11
171 859
153 167
2 16
102 103
152 836
94 108
48 379
194 195
81 565
53 67
43 44
58 420
20 326
35 49
157 798
34 328
127 141
86 100
76 77
9 24
219 1038
133 706
68 82
168 169
27 41
160 174
195 946
82 511
142 800
42 57
6 274
196 1009
38 343
21 272
108 667
101 115
134 149
60 74
204 1040
55 404
75 90
180 948
98 631
113 629
31 312
118 707
16 31
74 539
218 1041
24 291
61 429
108 123
9 10
13 300
67 509
33 376
123 669
167 843
49 64
96 563
194 949
183 958
186 200
79 501
109 124
133 710
63 493
212 1012
42 43
201 216
27 301
82 97
134 135
43 416
179 942
47 377
142 157
171 858
126 679
23 38
83 98
115 130
65 449
48 378
16 17
175 190
58 419
112 628
56 71
108 109
78 495
193 207
111 681
116 131
165 890
25 349
34 327
88 536
49 50
194 944
208 223
167 838
54 403
57 72
109 110
167 182
89 104
149 164
201 202
50 51
30 45
82 83
8 283
81 505
42 56
142 799
90 105
142 143
196 1008
200 215
23 24
134 148
182 197
20 275
83 84
141 156
115 116
23 280
75 89
123 138
175 176
34 48
152 839
24 25
66 507
156 800
56 57
139 729
199 1018
58 423
64 79
116 117
174 189
218 1040
132 708
61 428
115 637
108 122
156 171
67 81
67 508
39 400
57 58
125 678
89 90
157 801
167 168
194 948
167 842
54 407
49 63
96 562
97 112
8 22
149 150
133 709
159 173
183 957
207 222
63 492
189 204
100 114
180 888
148 163
200 201
212 1011
45 425
27 300
81 509
82 96
182 183
192 206
41 55
214 1020
31 32
47 376
101 585
141 142
197 958
126 678
21 333
23 37
40 346
57 417
123 124
127 741
133 147
192 940
181 196
115 129
215 216
156 795
74 88
64 65
122 137
174 175
58 418
166 836
56 70
156 157
5 235
15 29
78 494
5 6
95 565
165 889
25 348
192 992
34 326
107 121
97 98
194 943
167 837
54 402
167 181
89 103
86 583
122 667
189 190
48 62
148 149
208 209
30 44
89 597
8 282
63 78
81 504
140 154
200 214
222 223
81 95
124 731
178 940
4 19
20 274
141 155
207 994
22 36
100 639
122 123
87 529
66 506
156 799
114 128
139 728
37 52
112 631
174 188
55 69
115 636
132 707
77 493
211 1009
88 539
70 85
167 841
80 507
207 221
53 401
36 330
11 26
63 64
148 162
45 424
81 508
4 5
141 797
214 1019
101 584
197 957
44 59
21 332
57 416
127 740
104 595
37 38
156 794
196 211
122 136
155 170
166 835
199 1021
5 234
96 111
18 33
24 342
60 426
70 71
142 743
125 681
130 131
179 890
80 502
188 203
86 582
11 12
122 666
170 185
129 144
169 845
89 596
180 891
8 281
163 164
172 859
44 45
124 730
178 939
203 218
10 290
162 177
25 288
207 993
121 661
39 344
100 638
72 530
144 159
103 118
87 528
22 282
155 156
154 847
196 197
65 500
137 138
195 210
166 839
96 97
18 19
177 192
213 1018
88 102
77 492
136 151
188 189
192 995
114 639
180 194
118 133
44 422
29 43
80 506
53 400
77 92
129 130
170 171
157 857
193 941
210 225
46 370
111 112
169 184
221 222
51 448
66 446
153 841
151 166
203 204
62 76
141 796
110 125
162 163
214 1018
59 425
154 168
21 331
144 145
202 217
3 17
51 66
103 104
104 594
39 348
95 109
85 86
143 158
166 837
155 169
119 713
166 834
187 201
134 711
177 178
36 50
31 371
136 137
35 332
96 110
142 742
128 142
60 425
118 119
168 843
28 302
77 78
179 889
188 202
80 501
193 945
69 83
169 170
36 333
129 143
169 844
161 175
100 583
151 152
10 24
110 111
172 858
102 116
178 938
25 40
59 420
202 203
51 52
10 289
162 176
194 208
207 992
43 57
121 660
138 731
39 343
143 144
72 529
154 846
103 117
40 406
22 281
135 149
7 238
17 32
86 531
195 209
35 327
89 536
168 182
24 345
114 638
8 239
141 741
168 847
50 65
44 421
157 856
193 940
77 91
169 183
51 447
153 840
206 995
25 26
110 124
81 564
59 424
24 39
155 797
202 216
25 291
51 65
197 1013
84 99
39 347
17 18
143 157
176 191
103 597
65 503
9 23
119 712
134 710
117 132
35 331
213 1021
168 842
28 301
82 510
209 224
58 73
6 273
38 342
108 666
198 959
150 165
204 1039
100 582
31 46
66 449
91 106
180 947
98 630
113 628
183 198
10 288
118 706
32 47
84 85
158 159
138 730
20 329
74 538
39 342
192 939
24 290
124 139
176 177
40 405
217 218
5 20
17 31
86 530
65 80
117 118
123 668
16 313
219 1041
35 326
79 500
109 123
157 172
209 210
6 21
58 59
168 846
201 215
141 740
191 192
195 949
50 64
98 113
21 275
142 156
171 857
190 205
39 54
51 446
91 92
55 407
224 225
83 97
131 146
183 184
65 448
32 33
48 377
81 563
59 423
175 189
24 38
72 87
124 125
197 1012
84 98
111 680
116 130
164 179
216 217
65 66
13 303
103 596
176 190
208 222
119 711
198 199
33 379
57 71
157 158
6 7
117 131
89 539
133 713
149 163
139 140
197 212
168 841
98 99
28 300
82 509
209 223
58 72
142 798
6 272
90 104
190 191
179 945
43 419
39 40
150 164
198 958
204 1038
182 196
172 173
131 132
123 137
180 946
98 629
152 838
223 224
72 73
183 197
32 46
58 422
64 78
164 165
20 328
74 537
192 938
218 1039
24 289
124 138
40 404
156 170
157 800
5 19
38 53
86 529
123 667
65 79
54 406
194 947
97 111
16 312
197 198
130 145
133 708
183 956
211 1010
157 171
219 1040
189 203
6 20
212 1010
195 948
71 86
98 112
38 345
21 274
163 178
108 669
12 27
171 856
190 204
39 53
55 406
104 119
23 283
131 145
65 447
48 376
81 562
13 28
113 631
45 60
58 417
118 709
72 86
105 120
95 564
78 493
137 152
111 679
165 888
197 1011
38 39
25 347
164 178
67 511
103 595
39 403
46 61
167 836
54 401
78 93
33 378
194 942
211 1013
6 235
96 565
138 153
79 503
133 712
19 34
71 72
197 211
63 495
82 508
79 94
63 77
111 126
12 13
27 303
179 944
43 418
171 186
198 957
20 35
4 18
20 273
47 379
52 67
104 105
126 681
40 349
112 127
46 429
13 14
98 628
152 837
66 505
156 798
204 219
53 68
37 51
85 100
58 421
112 630
218 1038
145 160
24 288
132 706
46 47
26 41
78 79
157 799
34 329
88 538
38 52
211 1008
86 101
70 84
123 666
54 405
138 139
167 840
194 946
19 20
130 144
133 707
178 193
27 42
11 25
79 80
71 85
119 134
171 172
81 507
20 21
52 53
163 177
101 583
12 26
60 75
44 58
112 113
197 956
104 118
23 282
152 167
204 205
1 16
53 54
65 446
45 59
139 731
58 416
93 108
145 146
199 1020
95 563
26 27
78 492
111 678
137 151
185 200
25 346
115 639
86 87
18 32
211 1012
39 402
125 680
54 400
78 92
126 141
178 179
6 234
27 28
138 152
186 201
170 184
133 711
19 33
119 120
89 595
180 890
8 280
111 125
211 212
45 427
27 302
81 511
151 835
171 185
124 729
203 217
47 378
20 272
52 66
152 153
126 680
57 419
1 2
40 348
112 126
127 743
46 428
100 637
144 158
212 213
93 94
66 504
156 797
204 218
85 99
112 629
166 838
185 186
145 159
193 208
177 191
165 891
192 994
26 40
126 127
59 74
88 537
194 945
167 839
54 404
118 132
80 505
186 187
218 219
86 585
122 669
178 192
210 224
106 661
92 107
119 133
81 506
219 220
141 795
184 199
101 582
33 48
21 330
125 140
23 281
152 166
34 49
87 531
66 81
156 801
139 730
93 107
193 194
199 1019
95 562
31 370
158 173
7 22
59 60
132 709
115 638
185 199
142 741
77 495
60 424
67 82
39 401
99 114
125 679
179 888
211 1011
80 500
126 140
159 174
193 944
191 206
8 23
36 332
53 403
40 55
92 93
89 594
100 115
180 889
132 147
184 185
33 34
45 426
81 510
172 857
192 207
151 834
41 56
25 39
124 728
73 88
125 126
214 1021
197 959
57 418
40 347
133 148
127 742
34 35
100 636
154 845
14 29
66 67
72 528
104 597
22 280
165 180
156 796
74 89
106 121
7 8
